feasible solution found by trivial heuristic after 2.1 seconds, objective value 0.000000e+00
presolving:
(round 1, fast)       310001 del vars, 310002 del conss, 0 add conss, 2 chg bounds, 0 chg sides, 0 chg coeffs, 0 upgd conss, 0 impls, 15825 clqs
   (5.0s) running MILP presolver
   (5.0s) MILP presolver found nothing
(round 2, exhaustive) 310002 del vars, 310002 del conss, 0 add conss, 2 chg bounds, 0 chg sides, 0 chg coeffs, 19451 upgd conss, 0 impls, 15825 clqs
   (5.3s) probing: 51/3750 (1.4%) - 0 fixings, 0 aggregations, 0 implications, 0 bound changes
   (5.3s) probing aborted: 50/50 successive totally useless probings
   (5.5s) symmetry computation started: requiring (bin +, int -, cont +), (fixed: bin -, int +, cont -)
   (5.5s) no symmetry present
presolving (3 rounds: 3 fast, 2 medium, 2 exhaustive):
 310002 deleted vars, 310002 deleted constraints, 0 added constraints, 2 tightened bounds, 0 added holes, 0 changed sides, 0 changed coefficients
 0 implications, 15825 cliques
presolved problem has 3750 variables (3750 bin, 0 int, 0 impl, 0 cont) and 19451 constraints
  15825 constraints of type <setppc>
   3626 constraints of type <logicor>
Presolving Time: 4.20
transformed 1/1 original solutions to the transformed problem space

 time | node  | left  |LP iter|LP it/n|mem/heur|mdpt |vars |cons |rows |cuts |sepa|confs|strbr|  dualbound   | primalbound  |  gap   | compl. 
p 6.6s|     1 |     0 |     0 |     - |   locks|   0 |3750 |  19k|  19k|   0 |  0 |   0 |   0 | 3.146765e+07 | 2.149539e+06 |1363.93%| unknown
  8.0s|     1 |     0 |  1321 |     - |  1021M |   0 |3750 |  19k|  19k|   0 |  0 |   0 |   0 | 5.127333e+06 | 2.149539e+06 | 138.53%| unknown
  8.4s|     1 |     0 |  1454 |     - |  1025M |   0 |3750 |  19k|  19k|   1 |  1 |   0 |   0 | 5.104292e+06 | 2.149539e+06 | 137.46%| unknown
  9.0s|     1 |     0 |  1594 |     - |  1028M |   0 |3750 |  19k|  19k|   2 |  2 |   0 |   0 | 5.094283e+06 | 2.149539e+06 | 136.99%| unknown
  9.5s|     1 |     0 |  1692 |     - |  1031M |   0 |3750 |  19k|  19k|   3 |  3 |   0 |   0 | 5.090371e+06 | 2.149539e+06 | 136.81%| unknown
 10.1s|     1 |     0 |  1834 |     - |  1035M |   0 |3750 |  19k|  19k|   4 |  4 |   0 |   0 | 5.088209e+06 | 2.149539e+06 | 136.71%| unknown
 10.6s|     1 |     0 |  1988 |     - |  1037M |   0 |3750 |  19k|  19k|   5 |  5 |   0 |   0 | 5.086547e+06 | 2.149539e+06 | 136.63%| unknown
 11.2s|     1 |     0 |  2124 |     - |  1040M |   0 |3750 |  19k|  19k|   6 |  6 |   0 |   0 | 5.085828e+06 | 2.149539e+06 | 136.60%| unknown
 11.8s|     1 |     0 |  2273 |     - |  1043M |   0 |3750 |  19k|  19k|   7 |  7 |   0 |   0 | 5.085060e+06 | 2.149539e+06 | 136.57%| unknown
 12.3s|     1 |     0 |  2406 |     - |  1045M |   0 |3750 |  19k|  19k|   8 |  8 |   0 |   0 | 5.083951e+06 | 2.149539e+06 | 136.51%| unknown
 12.8s|     1 |     0 |  2640 |     - |  1049M |   0 |3750 |  19k|  19k|   9 |  9 |   0 |   0 | 5.082221e+06 | 2.149539e+06 | 136.43%| unknown
 13.2s|     1 |     0 |  2791 |     - |  1051M |   0 |3750 |  19k|  19k|  10 | 10 |   0 |   0 | 5.081023e+06 | 2.149539e+06 | 136.38%| unknown
 13.6s|     1 |     0 |  2982 |     - |  1053M |   0 |3750 |  19k|  19k|  12 | 11 |   0 |   0 | 5.079292e+06 | 2.149539e+06 | 136.30%| unknown
 13.9s|     1 |     0 |  3028 |     - |  1055M |   0 |3750 |  19k|  19k|  13 | 12 |   0 |   0 | 5.079024e+06 | 2.149539e+06 | 136.28%| unknown
 14.2s|     1 |     0 |  3064 |     - |  1058M |   0 |3750 |  19k|  19k|  14 | 13 |   0 |   0 | 5.078832e+06 | 2.149539e+06 | 136.28%| unknown
 time | node  | left  |LP iter|LP it/n|mem/heur|mdpt |vars |cons |rows |cuts |sepa|confs|strbr|  dualbound   | primalbound  |  gap   | compl. 
 14.6s|     1 |     0 |  3183 |     - |  1060M |   0 |3750 |  19k|  19k|  15 | 14 |   0 |   0 | 5.077778e+06 | 2.149539e+06 | 136.23%| unknown
 15.1s|     1 |     0 |  3210 |     - |  1062M |   0 |3750 |  19k|  19k|  16 | 15 |   0 |   0 | 5.077688e+06 | 2.149539e+06 | 136.22%| unknown
 15.5s|     1 |     0 |  3252 |     - |  1064M |   0 |3750 |  19k|  19k|  17 | 16 |   0 |   0 | 5.077531e+06 | 2.149539e+06 | 136.21%| unknown
 15.9s|     1 |     0 |  3275 |     - |  1066M |   0 |3750 |  19k|  19k|  18 | 17 |   0 |   0 | 5.077459e+06 | 2.149539e+06 | 136.21%| unknown
d17.1s|     1 |     0 |  3925 |     - |farkasdi|   0 |3750 |  19k|  19k|   0 | 19 |   0 |   0 | 5.077459e+06 | 3.789219e+06 |  34.00%| unknown
L28.4s|     1 |     0 |  3925 |     - |    rens|   0 |3750 |  19k|  19k|  18 | 19 |   0 |   0 | 5.077459e+06 | 3.846858e+06 |  31.99%| unknown
 28.6s|     1 |     0 |  3925 |     - |  1068M |   0 |3750 |  19k|  19k|  18 | 19 |   0 |   0 | 5.077459e+06 | 3.846858e+06 |  31.99%| unknown
 29.1s|     1 |     0 |  3952 |     - |  1068M |   0 |3750 |  19k|  19k|  19 | 20 |   0 |   0 | 5.077391e+06 | 3.846858e+06 |  31.99%| unknown
 29.5s|     1 |     0 |  3995 |     - |  1068M |   0 |3750 |  19k|  19k|  20 | 21 |   0 |   0 | 5.077262e+06 | 3.846858e+06 |  31.98%| unknown
 52.9s|     1 |     2 |  3995 |     - |  1069M |   0 |3750 |  19k|  19k|  20 | 21 |   0 |  20 | 4.974588e+06 | 3.846858e+06 |  29.32%| unknown

SCIP Status        : problem is solved [optimal solution found]
Solving Time (sec) : 90.67
Solving Nodes      : 3
Primal Bound       : +3.84685769367724e+06 (47 solutions)
Dual Bound         : +3.84685769367724e+06
Gap                : 0.00 %
Solve Status: optimal
Solve Time: 90.82 seconds
